NAME: I4430-n42-k3
COMMENT : (Fake et al, No of trucks: 3, Optimal value: )
TYPE : CVRP
DIMENSION : 42
EDGE_WEIGHT_TYPE : EUC_2D
CAPACITY : 36
NODE_COORD_SECTION
1 421 497
2 607 40
3 641 521
4 338 298
5 20 218
6 40 439
7 129 600
8 618 984
9 269 656
10 783 403
11 39 782
12 285 405
13 734 11
14 908 218
15 372 682
16 679 9
17 211 376
18 784 653
19 119 753
20 907 685
21 182 659
22 727 625
23 679 461
24 971 610
25 597 216
26 716 90
27 46 506
28 742 672
29 791 439
30 100 90
31 767 58
32 864 55
33 631 496
34 215 435
35 117 716
36 969 561
37 232 688
38 590 843
39 426 516
40 239 715
41 707 75
42 317 973
DEMAND_SECTION
1 0
2 2
3 4
4 2
5 2
6 4
7 1
8 2
9 3
10 1
11 3
12 3
13 1
14 1
15 1
16 1
17 4
18 4
19 3
20 3
21 2
22 3
23 2
24 1
25 1
26 4
27 4
28 4
29 1
30 2
31 2
32 2
33 4
34 4
35 3
36 1
37 3
38 2
39 1
40 1
41 2
42 1
DEPOT_SECTION
 1
 -1
 EOF 